Normalized Data/p10_1_normalized_splitx10_0.vrp
NAME:p10_1_NORMALIZED_splitx10_
BEST_KNOWN: 0
COMMENT: 0
DIMENSION: 840
CAPACITY: 1000
EDGE_WEIGHT_FORMAT: FUNCTION
EDGE_WEIGHT_TYPE: EXACT_2D
NODE_COORD_SECTION
1 0.00000 0.00000
2 -32 -45
3 -32 -45
4 -32 -45
5 -32 -45
6 -47 21
7 -47 21
8 -47 21
9 -47 21
10 -14 -5
11 -14 -5
12 -14 -5
13 -14 -5
14 -14 -5
15 -32 -47
16 -32 -47
17 -32 -47
18 -32 -47
19 -32 -47
20 -32 -47
21 -23 21
22 -23 21
23 -23 21
24 -23 21
25 -23 21
26 -11 14
27 -11 14
28 -11 14
29 22 -22
30 22 -22
31 22 -22
32 22 -22
33 22 -22
34 22 -22
35 22 -22
36 -26 -9
37 23 -20
38 23 -20
39 23 -20
40 23 -20
41 4 28
42 4 28
43 4 28
44 4 28
45 -13 38
46 -42 -17
47 -42 -17
48 -42 -17
49 -42 -17
50 -42 -17
51 46 22
52 46 22
53 46 22
54 46 22
55 30 -5
56 30 -5
57 30 -5
58 10 -31
59 10 -31
60 10 -31
61 10 -31
62 10 -31
63 10 -31
64 12 -12
65 12 -12
66 12 -12
67 12 -12
68 12 -12
69 12 -12
70 12 -12
71 36 -5
72 36 -5
73 36 -5
74 36 -5
75 -11 -8
76 -11 -8
77 -11 -8
78 -11 -8
79 30 7
80 30 7
81 30 7
82 -1 -12
83 -1 -12
84 -1 -12
85 -1 -12
86 -31 -14
87 -31 -14
88 -31 -14
89 0 12
90 0 12
91 0 12
92 0 12
93 0 12
94 0 12
95 47 -38
96 47 -38
97 47 -38
98 12 -49
99 12 -49
100 -10 20
101 -10 20
102 -10 20
103 4 -28
104 4 -28
105 -45 11
106 -45 11
107 -45 11
108 -45 11
109 -45 11
110 -45 11
111 -46 46
112 -46 46
113 -46 46
114 -46 46
115 -46 46
116 12 -40
117 12 -40
118 -42 -33
119 -42 -33
120 -42 -33
121 -42 -33
122 -42 -33
123 -42 -33
124 -42 -33
125 -4 47
126 -4 47
127 -4 47
128 -7 -17
129 -7 -17
130 -7 -17
131 10 -42
132 10 -42
133 10 -42
134 -22 -34
135 -22 -34
136 -39 -44
137 -39 -44
138 -39 -44
139 -35 -49
140 -35 -49
141 -35 -49
142 -24 8
143 -24 8
144 -24 8
145 -24 8
146 -24 8
147 40 -4
148 40 -4
149 40 -4
150 40 -4
151 40 -4
152 40 -4
153 -35 -44
154 -35 -44
155 -35 -44
156 -35 -44
157 -35 -44
158 -35 -44
159 -35 -44
160 -2 -35
161 -2 -35
162 -2 -35
163 -48 9
164 -48 9
165 -48 9
166 -48 9
167 -24 45
168 -24 45
169 -24 45
170 -24 45
171 -24 45
172 -24 45
173 -24 45
174 -47 -40
175 -47 -40
176 -47 -40
177 -47 -40
178 -47 -40
179 -47 -40
180 -1 33
181 -1 33
182 -1 33
183 -1 33
184 14 13
185 14 13
186 -33 -24
187 -33 -24
188 -33 -24
189 -33 -24
190 -33 -24
191 49 6
192 49 6
193 49 6
194 49 6
195 49 6
196 10 -49
197 10 -49
198 -36 42
199 -36 42
200 -36 42
201 -36 42
202 -36 42
203 -36 42
204 -36 42
205 -31 23
206 -31 23
207 -31 23
208 -31 23
209 -31 23
210 32 -17
211 32 -17
212 32 -17
213 32 -17
214 32 -17
215 17 -33
216 17 -33
217 17 -33
218 17 -33
219 -50 -11
220 -50 -11
221 -50 -11
222 -50 -11
223 23 -16
224 23 -16
225 23 -16
226 23 -16
227 -45 -23
228 -45 -23
229 -45 -23
230 -29 8
231 -29 8
232 -29 8
233 -47 -12
234 -47 -12
235 -47 -12
236 -47 -12
237 -47 -12
238 22 -3
239 22 -3
240 -15 -8
241 -15 -8
242 -15 -8
243 -15 -8
244 -15 -8
245 -30 -11
246 -30 -11
247 -30 -11
248 42 37
249 42 37
250 42 37
251 42 37
252 -30 -14
253 -30 -14
254 -30 -14
255 -30 -14
256 -30 -14
257 -49 -44
258 -49 -44
259 -49 -44
260 -49 -44
261 -49 -44
262 -49 -44
263 -49 -44
264 3 -46
265 3 -46
266 3 -46
267 3 -46
268 3 -46
269 8 -36
270 8 -36
271 8 -36
272 9 32
273 9 32
274 9 32
275 9 32
276 9 32
277 9 32
278 9 32
279 -27 45
280 -27 45
281 -27 45
282 -32 -33
283 -32 -33
284 -32 -33
285 34 -18
286 34 -18
287 34 -18
288 34 -18
289 23 34
290 23 34
291 23 34
292 23 34
293 -13 49
294 -13 49
295 -2 45
296 -2 45
297 -2 45
298 -46 -31
299 -46 -31
300 -46 -31
301 -46 -31
302 -18 -28
303 -18 -28
304 -18 -28
305 -18 -28
306 -18 -28
307 -18 -28
308 7 17
309 7 17
310 7 17
311 7 17
312 7 17
313 20 37
314 20 37
315 20 37
316 20 37
317 20 37
318 20 37
319 20 37
320 45 -32
321 45 -32
322 45 -32
323 -27 31
324 -27 31
325 -27 31
326 -27 31
327 48 -45
328 48 -45
329 48 -45
330 48 -45
331 48 -45
332 28 -46
333 28 -46
334 28 -46
335 28 -46
336 28 -46
337 28 -46
338 28 -46
339 46 32
340 46 32
341 46 32
342 46 32
343 -9 29
344 -9 29
345 -6 -5
346 -6 -5
347 -6 -5
348 -6 -5
349 -6 -5
350 -6 -5
351 -6 -5
352 -21 50
353 -21 50
354 -21 50
355 42 31
356 42 31
357 42 31
358 -23 -36
359 -23 -36
360 4 20
361 4 20
362 4 20
363 4 20
364 4 20
365 11 35
366 11 35
367 11 35
368 -34 40
369 -34 40
370 -34 40
371 -34 40
372 -34 40
373 30 -48
374 30 -48
375 30 -48
376 -9 -12
377 -9 -12
378 -9 -12
379 -9 -12
380 -9 -12
381 41 15
382 41 15
383 41 15
384 41 15
385 41 15
386 18 10
387 18 10
388 18 10
389 -13 -12
390 -13 -12
391 -13 -12
392 -13 -12
393 28 11
394 28 11
395 24 7
396 24 7
397 24 7
398 24 7
399 24 7
400 -17 25
401 -17 25
402 -44 -31
403 -44 -31
404 -44 -31
405 -44 -31
406 18 -50
407 18 -50
408 18 -50
409 18 -50
410 18 -50
411 18 -50
412 18 -50
413 4 14
414 4 14
415 4 14
416 -34 16
417 -34 16
418 -34 16
419 -34 16
420 -14 -19
421 -14 -19
422 22 -27
423 22 -27
424 22 -27
425 22 -27
426 22 -27
427 22 -27
428 -23 49
429 -23 49
430 -23 49
431 -23 49
432 -23 49
433 -21 18
434 -21 18
435 -46 16
436 -46 16
437 -46 16
438 -46 16
439 -46 16
440 -5 19
441 -5 19
442 -5 19
443 -5 19
444 1 21
445 1 21
446 1 21
447 -21 37
448 -21 37
449 -21 37
450 -21 37
451 -28 41
452 -28 41
453 -28 41
454 0 -22
455 0 -22
456 0 -22
457 0 -22
458 0 -22
459 0 -22
460 0 -22
461 32 -22
462 32 -22
463 0 50
464 0 50
465 11 -1
466 11 -1
467 11 -1
468 -10 -45
469 -10 -45
470 -10 -45
471 -10 -45
472 -10 -45
473 35 49
474 35 49
475 29 -1
476 29 -1
477 29 -1
478 29 -1
479 29 -1
480 48 -3
481 48 -3
482 48 -3
483 48 -3
484 48 -3
485 -3 -30
486 -3 -30
487 -3 -30
488 -3 -30
489 -3 -30
490 -3 -30
491 -3 -30
492 32 -33
493 32 -33
494 32 -33
495 32 -33
496 32 -33
497 32 -33
498 32 -33
499 47 -8
500 11 28
501 11 28
502 11 28
503 11 28
504 11 28
505 -37 -25
506 -37 -25
507 -37 -25
508 -37 -25
509 -37 -25
510 -37 -25
511 -37 -25
512 -33 -6
513 -33 -6
514 -33 -6
515 -42 -15
516 -42 -15
517 24 -33
518 24 -33
519 24 -33
520 24 -33
521 24 -33
522 24 -33
523 24 -33
524 -29 -47
525 -29 -47
526 -29 -47
527 -29 -47
528 -29 -47
529 -29 -47
530 -29 -47
531 -22 -17
532 -22 -17
533 -22 -17
534 9 8
535 9 8
536 9 8
537 9 8
538 9 8
539 9 8
540 16 -31
541 16 -31
542 16 -31
543 16 -31
544 16 -31
545 16 -31
546 -25 -37
547 -25 -37
548 -25 -37
549 -25 -37
550 -7 3
551 -7 3
552 -7 3
553 -7 3
554 -7 3
555 -7 3
556 1 -40
557 1 -40
558 1 -40
559 -46 -2
560 -46 -2
561 17 16
562 17 16
563 17 16
564 17 16
565 35 36
566 35 36
567 35 36
568 35 36
569 35 36
570 9 28
571 9 28
572 9 28
573 9 28
574 9 28
575 -38 35
576 -38 35
577 -38 35
578 17 18
579 17 18
580 17 18
581 2 -13
582 2 -13
583 2 -13
584 2 -13
585 45 -44
586 45 -44
587 45 -44
588 45 -44
589 45 -44
590 45 -44
591 -44 17
592 -44 17
593 -44 17
594 -44 17
595 24 -30
596 24 -30
597 24 -30
598 24 -30
599 24 -30
600 10 -2
601 10 -2
602 10 -2
603 -1 25
604 -1 25
605 -1 25
606 -1 25
607 -1 25
608 38 17
609 38 17
610 38 17
611 38 17
612 38 17
613 38 17
614 7 -33
615 7 -33
616 7 -33
617 7 -33
618 7 -33
619 -16 43
620 -16 43
621 42 -28
622 42 -28
623 42 -28
624 42 -28
625 -49 32
626 -49 32
627 -49 32
628 -49 32
629 -3 19
630 -3 19
631 -3 19
632 20 34
633 20 34
634 20 34
635 20 34
636 20 34
637 20 34
638 32 -36
639 32 -36
640 32 -36
641 -33 11
642 -33 11
643 -33 11
644 -33 11
645 -33 11
646 -33 11
647 -33 11
648 -18 49
649 -18 49
650 -18 49
651 -18 49
652 -18 49
653 -18 49
654 -18 49
655 41 -23
656 41 -23
657 41 -23
658 41 -23
659 41 -23
660 41 -23
661 24 -42
662 24 -42
663 24 -42
664 24 -42
665 24 -42
666 37 13
667 37 13
668 37 13
669 -23 -40
670 -23 -40
671 -23 -40
672 -23 -40
673 -23 -40
674 -23 -40
675 -23 4
676 -23 4
677 -23 4
678 -23 4
679 -23 4
680 -4 -14
681 -4 -14
682 -4 -14
683 -4 -14
684 15 -33
685 15 -33
686 15 -33
687 15 -33
688 22 -48
689 22 -48
690 22 -48
691 22 -48
692 22 -48
693 13 -33
694 13 -33
695 23 30
696 23 30
697 23 30
698 -35 7
699 -35 7
700 -35 7
701 -35 7
702 -35 7
703 -11 -45
704 -11 -45
705 -11 -45
706 -11 -45
707 -11 -45
708 -11 -45
709 -12 46
710 -12 46
711 -12 46
712 -12 46
713 -12 46
714 -7 -9
715 -7 -9
716 -7 -9
717 -7 -9
718 -7 -9
719 10 10
720 10 10
721 10 10
722 10 10
723 -28 33
724 -28 33
725 -28 33
726 -20 -19
727 -20 -19
728 -20 -19
729 27 -6
730 27 -6
731 -41 -46
732 -41 -46
733 -41 -46
734 -41 -46
735 -41 -46
736 27 43
737 27 43
738 -50 7
739 -50 7
740 -50 7
741 -50 7
742 48 -12
743 48 -12
744 48 -12
745 48 -12
746 48 -12
747 42 41
748 42 41
749 42 41
750 -4 -45
751 -4 -45
752 -4 -45
753 -4 -45
754 -49 0
755 -49 0
756 34 -29
757 34 -29
758 34 -29
759 34 -29
760 34 -29
761 12 -31
762 12 -31
763 -24 -32
764 -24 -32
765 -24 -32
766 -24 -32
767 -24 -32
768 -13 -13
769 -13 -13
770 -13 -13
771 -13 -13
772 -13 -13
773 -13 -13
774 41 46
775 41 46
776 41 46
777 41 46
778 41 46
779 -12 19
780 -12 19
781 -12 19
782 -12 19
783 -12 19
784 9 5
785 9 5
786 9 5
787 9 5
788 9 5
789 -20 38
790 -20 38
791 -20 38
792 -20 38
793 -45 -4
794 -45 -4
795 -45 -4
796 -16 7
797 -16 7
798 -16 7
799 -16 7
800 -16 7
801 -16 7
802 46 -33
803 46 -33
804 46 -33
805 46 -33
806 22 -38
807 22 -38
808 22 -38
809 22 -38
810 22 -38
811 -34 30
812 -34 30
813 -34 30
814 -34 30
815 -34 30
816 3 17
817 3 17
818 3 17
819 3 17
820 3 17
821 25 -4
822 25 -4
823 25 -4
824 25 -4
825 25 -4
826 25 -4
827 36 -35
828 36 -35
829 35 -38
830 35 -38
831 35 -38
832 35 -38
833 35 -38
834 -8 3
835 -8 3
836 -8 3
837 30 -8
838 30 -8
839 30 -8
840 30 -8
DEMAND_SECTION
1 0
2 200
3 200
4 10
5 10
6 100
7 50
8 10
9 10
10 100
11 10
12 10
13 10
14 10
15 200
16 200
17 10
18 10
19 10
20 10
21 200
22 100
23 50
24 10
25 10
26 200
27 200
28 10
29 200
30 200
31 50
32 10
33 10
34 10
35 10
36 200
37 100
38 10
39 10
40 10
41 200
42 200
43 50
44 10
45 200
46 200
47 100
48 50
49 10
50 10
51 200
52 50
53 10
54 10
55 200
56 200
57 10
58 200
59 50
60 10
61 10
62 10
63 10
64 200
65 100
66 50
67 10
68 10
69 10
70 10
71 100
72 50
73 10
74 10
75 200
76 100
77 10
78 10
79 200
80 200
81 50
82 200
83 200
84 50
85 10
86 200
87 10
88 10
89 200
90 50
91 10
92 10
93 10
94 10
95 200
96 100
97 10
98 200
99 50
100 100
101 10
102 10
103 200
104 200
105 100
106 50
107 10
108 10
109 10
110 10
111 100
112 50
113 10
114 10
115 10
116 200
117 200
118 200
119 100
120 50
121 10
122 10
123 10
124 10
125 200
126 200
127 100
128 200
129 200
130 10
131 100
132 10
133 10
134 200
135 50
136 200
137 50
138 10
139 100
140 10
141 10
142 100
143 50
144 10
145 10
146 10
147 200
148 200
149 50
150 10
151 10
152 10
153 200
154 200
155 50
156 10
157 10
158 10
159 10
160 200
161 200
162 10
163 200
164 200
165 50
166 10
167 200
168 100
169 50
170 10
171 10
172 10
173 10
174 200
175 200
176 10
177 10
178 10
179 10
180 200
181 10
182 10
183 10
184 200
185 50
186 200
187 10
188 10
189 10
190 10
191 200
192 200
193 10
194 10
195 10
196 200
197 50
198 200
199 100
200 50
201 10
202 10
203 10
204 10
205 200
206 100
207 50
208 10
209 10
210 100
211 10
212 10
213 10
214 10
215 200
216 100
217 50
218 10
219 200
220 200
221 10
222 10
223 100
224 50
225 10
226 10
227 100
228 10
229 10
230 200
231 100
232 10
233 200
234 100
235 10
236 10
237 10
238 200
239 50
240 200
241 100
242 10
243 10
244 10
245 200
246 10
247 10
248 200
249 10
250 10
251 10
252 200
253 50
254 10
255 10
256 10
257 200
258 200
259 50
260 10
261 10
262 10
263 10
264 200
265 200
266 50
267 10
268 10
269 200
270 100
271 10
272 200
273 200
274 50
275 10
276 10
277 10
278 10
279 200
280 100
281 10
282 100
283 50
284 10
285 200
286 200
287 50
288 10
289 200
290 100
291 10
292 10
293 200
294 50
295 200
296 10
297 10
298 100
299 10
300 10
301 10
302 200
303 200
304 50
305 10
306 10
307 10
308 200
309 50
310 10
311 10
312 10
313 200
314 100
315 50
316 10
317 10
318 10
319 10
320 100
321 50
322 10
323 100
324 50
325 10
326 10
327 200
328 50
329 10
330 10
331 10
332 200
333 200
334 50
335 10
336 10
337 10
338 10
339 200
340 100
341 50
342 10
343 100
344 50
345 200
346 100
347 50
348 10
349 10
350 10
351 10
352 200
353 50
354 10
355 200
356 200
357 50
358 200
359 10
360 200
361 100
362 50
363 10
364 10
365 200
366 100
367 50
368 200
369 200
370 50
371 10
372 10
373 200
374 200
375 100
376 200
377 100
378 10
379 10
380 10
381 200
382 100
383 10
384 10
385 10
386 200
387 100
388 50
389 200
390 200
391 50
392 10
393 200
394 50
395 200
396 100
397 50
398 10
399 10
400 200
401 50
402 200
403 100
404 10
405 10
406 200
407 100
408 50
409 10
410 10
411 10
412 10
413 200
414 100
415 10
416 200
417 50
418 10
419 10
420 200
421 100
422 200
423 200
424 50
425 10
426 10
427 10
428 100
429 50
430 10
431 10
432 10
433 200
434 50
435 100
436 10
437 10
438 10
439 10
440 200
441 200
442 10
443 10
444 200
445 100
446 10
447 200
448 50
449 10
450 10
451 100
452 50
453 10
454 200
455 100
456 50
457 10
458 10
459 10
460 10
461 200
462 50
463 100
464 50
465 200
466 50
467 10
468 200
469 200
470 10
471 10
472 10
473 200
474 10
475 200
476 200
477 50
478 10
479 10
480 200
481 100
482 10
483 10
484 10
485 200
486 200
487 50
488 10
489 10
490 10
491 10
492 200
493 100
494 50
495 10
496 10
497 10
498 10
499 200
500 200
501 100
502 50
503 10
504 10
505 200
506 100
507 50
508 10
509 10
510 10
511 10
512 200
513 10
514 10
515 200
516 200
517 200
518 100
519 50
520 10
521 10
522 10
523 10
524 200
525 100
526 50
527 10
528 10
529 10
530 10
531 200
532 200
533 10
534 200
535 200
536 50
537 10
538 10
539 10
540 200
541 200
542 10
543 10
544 10
545 10
546 200
547 200
548 10
549 10
550 200
551 200
552 50
553 10
554 10
555 10
556 100
557 50
558 10
559 200
560 10
561 100
562 50
563 10
564 10
565 200
566 100
567 10
568 10
569 10
570 200
571 100
572 10
573 10
574 10
575 200
576 200
577 50
578 200
579 10
580 10
581 200
582 50
583 10
584 10
585 200
586 200
587 50
588 10
589 10
590 10
591 200
592 100
593 10
594 10
595 200
596 200
597 10
598 10
599 10
600 200
601 100
602 10
603 100
604 10
605 10
606 10
607 10
608 200
609 200
610 10
611 10
612 10
613 10
614 100
615 10
616 10
617 10
618 10
619 200
620 200
621 200
622 200
623 10
624 10
625 100
626 50
627 10
628 10
629 200
630 50
631 10
632 200
633 200
634 50
635 10
636 10
637 10
638 200
639 200
640 10
641 200
642 100
643 50
644 10
645 10
646 10
647 10
648 200
649 200
650 50
651 10
652 10
653 10
654 10
655 100
656 50
657 10
658 10
659 10
660 10
661 100
662 50
663 10
664 10
665 10
666 200
667 200
668 10
669 100
670 50
671 10
672 10
673 10
674 10
675 200
676 200
677 50
678 10
679 10
680 200
681 50
682 10
683 10
684 100
685 10
686 10
687 10
688 200
689 10
690 10
691 10
692 10
693 200
694 10
695 200
696 100
697 50
698 200
699 100
700 10
701 10
702 10
703 200
704 200
705 50
706 10
707 10
708 10
709 200
710 10
711 10
712 10
713 10
714 100
715 50
716 10
717 10
718 10
719 200
720 100
721 50
722 10
723 200
724 100
725 50
726 200
727 100
728 50
729 200
730 50
731 200
732 200
733 10
734 10
735 10
736 200
737 10
738 200
739 10
740 10
741 10
742 200
743 50
744 10
745 10
746 10
747 200
748 10
749 10
750 200
751 200
752 50
753 10
754 100
755 50
756 200
757 200
758 10
759 10
760 10
761 200
762 200
763 100
764 10
765 10
766 10
767 10
768 200
769 200
770 50
771 10
772 10
773 10
774 100
775 10
776 10
777 10
778 10
779 200
780 200
781 10
782 10
783 10
784 100
785 50
786 10
787 10
788 10
789 200
790 200
791 10
792 10
793 100
794 10
795 10
796 200
797 200
798 50
799 10
800 10
801 10
802 200
803 100
804 50
805 10
806 200
807 10
808 10
809 10
810 10
811 200
812 100
813 10
814 10
815 10
816 100
817 10
818 10
819 10
820 10
821 200
822 100
823 50
824 10
825 10
826 10
827 200
828 50
829 100
830 10
831 10
832 10
833 10
834 200
835 50
836 10
837 100
838 50
839 10
840 10
DEPOT_SECTION
1
-1
EOF