Normalized Data/p10_1_normalized_splitx10_0.sol
839 -12 11 10 13 9 254 251 85 245 246 244 513 511 512 -17 19 14 18 16 15 139 138 140 528 529 524 523 526 525 527 134 -26 25 27 780 781 779 782 778 99 101 100 -33 31 29 30 34 28 32 422 421 426 423 425 424 -35 532 530 531 727 726 725 -38 36 827 94 96 95 804 803 801 802 321 319 320 -39 37 497 493 495 496 492 494 491 828 639 637 638 518 521 -40 42 41 43 573 569 571 572 570 499 -53 51 52 50 341 338 339 355 354 -64 63 580 581 81 82 83 -68 65 67 69 66 222 461 460 284 285 213 211 212 209 210 -84 490 159 161 160 749 752 751 750 557 555 -90 89 92 91 93 88 630 629 628 439 441 442 440 -103 102 488 487 485 486 484 489 454 456 459 -125 126 124 462 463 296 295 294 182 181 180 815 -130 98 408 410 405 407 409 406 411 688 691 689 690 687 662 663 664 661 660 806 809 807 543 -131 132 97 195 196 266 263 267 265 264 556 -133 358 357 546 545 547 548 762 764 765 766 763 -137 135 136 731 730 734 732 733 153 154 158 -144 142 590 592 593 591 434 437 435 436 438 8 6 7 5 812 811 810 -145 141 143 231 229 230 640 644 646 642 645 418 415 416 417 -168 172 171 430 431 428 427 429 352 351 353 649 653 648 650 647 652 651 -169 170 166 167 279 278 280 450 452 451 722 -186 188 187 120 122 123 173 175 177 176 174 178 262 256 258 257 260 261 259 -189 185 508 505 504 506 509 510 46 47 45 48 49 86 87 253 255 -208 205 204 207 206 24 22 20 21 23 432 433 -225 224 223 656 655 658 657 623 620 621 622 759 756 755 758 757 -233 232 559 558 754 753 698 697 701 699 700 -238 73 71 72 70 146 147 151 149 150 148 476 475 -240 243 242 239 241 74 76 75 77 347 350 348 345 344 349 -252 228 227 226 297 299 298 300 401 403 404 402 118 119 121 117 507 -274 271 273 276 272 277 364 365 366 501 502 503 500 -275 315 313 314 318 317 316 736 735 472 473 777 776 774 773 775 747 746 748 566 -282 281 283 156 157 152 155 1 4 2 3 669 668 671 670 673 672 -287 286 659 654 745 744 741 743 742 498 481 483 480 482 479 -289 291 290 288 312 635 632 631 634 633 636 -303 306 305 302 304 301 420 419 379 376 377 714 716 715 -322 325 324 323 202 197 370 368 371 367 369 723 724 -337 336 333 332 334 335 331 372 374 373 -343 44 790 789 788 791 446 449 447 448 -346 391 388 389 390 770 771 768 767 769 772 -356 340 248 249 250 247 567 564 568 565 695 694 696 -382 383 384 381 380 190 193 194 191 192 477 478 474 -387 611 608 610 612 607 609 667 665 666 398 396 397 -393 392 80 78 79 395 394 -400 399 342 179 602 603 605 444 445 443 -414 412 413 310 309 311 307 308 360 361 362 359 363 819 818 817 816 -453 455 458 457 62 58 60 57 61 59 761 760 -464 237 823 820 825 824 822 601 600 599 -465 466 821 54 55 56 838 837 839 836 729 728 -471 468 469 470 467 702 704 703 707 705 706 -515 514 234 236 235 219 220 221 218 792 794 793 -537 535 533 538 536 534 719 721 718 783 786 785 784 -541 539 540 544 542 215 217 216 214 692 693 -554 551 552 553 550 549 835 833 834 -583 582 617 614 616 613 615 270 268 269 115 116 685 686 683 684 -598 597 596 595 594 520 519 516 522 517 808 805 -604 606 710 712 709 711 708 292 293 619 618 -625 624 626 627 114 112 110 111 113 200 199 198 201 203 576 574 575 813 814 -643 641 105 108 104 106 109 107 163 162 164 165 737 740 738 739 -674 676 675 678 677 797 799 795 796 798 800 -679 682 681 680 129 128 127 378 375 717 713 -720 184 183 577 579 578 562 563 560 561 385 386 787 -826 329 328 327 330 326 584 585 588 589 586 587 831 832 829 830 0 





OBJ=
5602.758
BEST_KNOWN=
0.000